\ Model index_tracking_31assets
\ LP format - for model browsing. Use MPS format to capture full model detail.
Minimize
  - 0.2277799382618091 w[0] - 0.09280893722915 w[1]
   - 0.0476484018092589 w[2] - 0.00890354612626204 w[3]
   - 0.0345481140391188 w[4] - 0.0190138727050934 w[5]
   - 0.3873614234498122 w[6] - 0.0370596819206532 w[7]
   - 0.0499798666440108 w[8] - 0.07669993235822 w[9]
   - 0.0461555815272185 w[10] - 0.2406795765263928 w[11]
   - 0.0237068986650281 w[12] - 0.0536790559384379 w[13]
   - 0.0210298922219267 w[14] - 0.0118034627192941 w[15]
   - 0.0239662444608239 w[16] - 0.0425797442617946 w[17]
   - 0.0287636726869349 w[18] - 0.0221092145714236 w[19]
   - 0.0108275952028713 w[20] - 0.0406626458161303 w[21]
   - 0.00981287281626167 w[22] - 0.0944878650534458 w[23]
   - 0.0479834041076569 w[24] - 0.0102868250074579 w[25]
   - 0.0324339713959703 w[26] - 0.0208271837571034 w[27]
   - 0.0608000104502297 w[28] - 0.1688255437851779 w[29]
   - 0.00677502448503106 w[30] + 0.0847310545828845 Constant + [ 2 w[0] ^2
   + 2 w[1] ^2 + 2 w[2] ^2 + 2 w[3] ^2 + 2 w[4] ^2 + 2 w[5] ^2 + 2 w[6] ^2
   + 2 w[7] ^2 + 2 w[8] ^2 + 2 w[9] ^2 + 2 w[10] ^2 + 2 w[11] ^2
   + 2 w[12] ^2 + 2 w[13] ^2 + 2 w[14] ^2 + 2 w[15] ^2 + 2 w[16] ^2
   + 2 w[17] ^2 + 2 w[18] ^2 + 2 w[19] ^2 + 2 w[20] ^2 + 2 w[21] ^2
   + 2 w[22] ^2 + 2 w[23] ^2 + 2 w[24] ^2 + 2 w[25] ^2 + 2 w[26] ^2
   + 2 w[27] ^2 + 2 w[28] ^2 + 2 w[29] ^2 + 2 w[30] ^2 ] / 2 
Subject To
 budget: w[0] + w[1] + w[2] + w[3] + w[4] + w[5] + w[6] + w[7] + w[8]
   + w[9] + w[10] + w[11] + w[12] + w[13] + w[14] + w[15] + w[16] + w[17]
   + w[18] + w[19] + w[20] + w[21] + w[22] + w[23] + w[24] + w[25] + w[26]
   + w[27] + w[28] + w[29] + w[30] = 1
 max_dev_0: w[0] <= 0.1638899691309046
 min_dev_0: w[0] >= 0.0638899691309046
 max_dev_1: w[1] <= 0.096404468614575
 min_dev_1: w[1] >= 0
 max_dev_2: w[2] <= 0.0738242009046295
 min_dev_2: w[2] >= 0
 max_dev_3: w[3] <= 0.054451773063131
 min_dev_3: w[3] >= 0
 max_dev_4: w[4] <= 0.0672740570195594
 min_dev_4: w[4] >= 0
 max_dev_5: w[5] <= 0.0595069363525467
 min_dev_5: w[5] >= 0
 max_dev_6: w[6] <= 0.2436807117249061
 min_dev_6: w[6] >= 0.1436807117249061
 max_dev_7: w[7] <= 0.0685298409603266
 min_dev_7: w[7] >= 0
 max_dev_8: w[8] <= 0.0749899333220054
 min_dev_8: w[8] >= 0
 max_dev_9: w[9] <= 0.08834996617911
 min_dev_9: w[9] >= 0
 max_dev_10: w[10] <= 0.0730777907636092
 min_dev_10: w[10] >= 0
 max_dev_11: w[11] <= 0.1703397882631964
 min_dev_11: w[11] >= 0.0703397882631964
 max_dev_12: w[12] <= 0.061853449332514
 min_dev_12: w[12] >= 0
 max_dev_13: w[13] <= 0.076839527969219
 min_dev_13: w[13] >= 0
 max_dev_14: w[14] <= 0.0605149461109634
 min_dev_14: w[14] >= 0
 max_dev_15: w[15] <= 0.0559017313596471
 min_dev_15: w[15] >= 0
 max_dev_16: w[16] <= 0.061983122230412
 min_dev_16: w[16] >= 0
 max_dev_17: w[17] <= 0.0712898721308973
 min_dev_17: w[17] >= 0
 max_dev_18: w[18] <= 0.0643818363434674
 min_dev_18: w[18] >= 0
 max_dev_19: w[19] <= 0.0610546072857118
 min_dev_19: w[19] >= 0
 max_dev_20: w[20] <= 0.0554137976014357
 min_dev_20: w[20] >= 0
 max_dev_21: w[21] <= 0.0703313229080652
 min_dev_21: w[21] >= 0
 max_dev_22: w[22] <= 0.0549064364081308
 min_dev_22: w[22] >= 0
 max_dev_23: w[23] <= 0.0972439325267229
 min_dev_23: w[23] >= 0
 max_dev_24: w[24] <= 0.0739917020538284
 min_dev_24: w[24] >= 0
 max_dev_25: w[25] <= 0.055143412503729
 min_dev_25: w[25] >= 0
 max_dev_26: w[26] <= 0.0662169856979852
 min_dev_26: w[26] >= 0
 max_dev_27: w[27] <= 0.0604135918785517
 min_dev_27: w[27] >= 0
 max_dev_28: w[28] <= 0.0804000052251148
 min_dev_28: w[28] >= 0
 max_dev_29: w[29] <= 0.134412771892589
 min_dev_29: w[29] >= 0.034412771892589
 max_dev_30: w[30] <= 0.0533875122425155
 min_dev_30: w[30] >= 0
Bounds
 w[0] <= 1
 w[1] <= 1
 w[2] <= 1
 w[3] <= 1
 w[4] <= 1
 w[5] <= 1
 w[6] <= 1
 w[7] <= 1
 w[8] <= 1
 w[9] <= 1
 w[10] <= 1
 w[11] <= 1
 w[12] <= 1
 w[13] <= 1
 w[14] <= 1
 w[15] <= 1
 w[16] <= 1
 w[17] <= 1
 w[18] <= 1
 w[19] <= 1
 w[20] <= 1
 w[21] <= 1
 w[22] <= 1
 w[23] <= 1
 w[24] <= 1
 w[25] <= 1
 w[26] <= 1
 w[27] <= 1
 w[28] <= 1
 w[29] <= 1
 w[30] <= 1
 Constant = 1
End
